
Gurobi 9.5.2 (win64) logging started Mon Mar 27 20:28:23 2023

Set parameter LogFile to value "2023-03-27_20hr-25min-09sec/Nodes40_Arcs55_LocNodes30/Formulation-2Instance-5.log"
Set parameter TimeLimit to value 600
Set parameter IntFeasTol to value 1e-09
Set parameter DualReductions to value 0
Set parameter NonConvex to value 2
Gurobi Optimizer version 9.5.2 build v9.5.2rc0 (win64)
Thread count: 4 physical cores, 8 logical processors, using up to 8 threads
Optimize a model with 166 rows, 290 columns and 610 nonzeros
Model fingerprint: 0x0b0a43ba
Model has 95 quadratic objective terms
Model has 95 SOS constraints
Variable types: 260 continuous, 30 integer (30 binary)
Coefficient statistics:
  Matrix range     [5e-03, 2e+02]
  Objective range  [1e-01, 1e+03]
  QObjective range [1e-02, 8e+00]
  Bounds range     [1e+00, 1e+00]
  RHS range        [1e-01, 3e+03]
Presolve removed 14 rows and 17 columns
Presolve time: 0.00s
Presolved: 152 rows, 273 columns, 574 nonzeros
Presolved model has 89 SOS constraint(s)
Presolved model has 89 quadratic objective terms
Variable types: 243 continuous, 30 integer (30 binary)

Root relaxation: objective 7.238455e+05, 329 iterations, 0.00 seconds (0.00 work units)

    Nodes    |    Current Node    |     Objective Bounds      |     Work
 Expl Unexpl |  Obj  Depth IntInf | Incumbent    BestBd   Gap | It/Node Time

     0     0 723845.529    0   10          - 723845.529      -     -    0s
H    0     0                    672550.20058 723845.529  7.63%     -    0s
H    0     0                    673883.12848 723845.529  7.41%     -    0s
     0     0 723442.809    0   10 673883.128 723442.809  7.35%     -    0s
H    0     0                    710552.27830 723442.809  1.81%     -    0s
H    0     0                    710553.73187 723442.809  1.81%     -    0s
     0     2 723442.809    0    9 710553.732 723442.809  1.81%     -    0s
H   15    10                    711227.79105 711688.524  0.06%   3.5    0s
H   19     9                    711398.49777 711688.524  0.04%   3.1    0s
*   27     8               7    711399.67071 711600.350  0.03%   3.1    0s
*   28     8               9    711531.30571 711600.350  0.01%   3.0    0s
H   30     8                    711535.59820 711600.350  0.01%   2.9    0s

Explored 36 nodes (443 simplex iterations) in 0.07 seconds (0.02 work units)
Thread count was 8 (of 8 available processors)

Solution count 7: 711536 711531 711400 ... 672550

Optimal solution found (tolerance 1.00e-04)
Best objective 7.115355981953e+05, best bound 7.115379601177e+05, gap 0.0003%

User-callback calls 336, time in user-callback 0.00 sec
